c CNF file corresponding to a (partial) station packing problem.
p cnf 2760 229
1 2 3 4 5 6 7 8 9 10 11 12 13 14 0
-1 -2 0
-1 -3 0
-1 -4 0
-1 -5 0
-1 -6 0
-1 -7 0
-1 -8 0
-1 -9 0
-1 -10 0
-1 -11 0
-1 -12 0
-1 -13 0
-1 -14 0
-2 -3 0
-2 -4 0
-2 -5 0
-2 -6 0
-2 -7 0
-2 -8 0
-2 -9 0
-2 -10 0
-2 -11 0
-2 -12 0
-2 -13 0
-2 -14 0
-3 -4 0
-3 -5 0
-3 -6 0
-3 -7 0
-3 -8 0
-3 -9 0
-3 -10 0
-3 -11 0
-3 -12 0
-3 -13 0
-3 -14 0
-4 -5 0
-4 -6 0
-4 -7 0
-4 -8 0
-4 -9 0
-4 -10 0
-4 -11 0
-4 -12 0
-4 -13 0
-4 -14 0
-5 -6 0
-5 -7 0
-5 -8 0
-5 -9 0
-5 -10 0
-5 -11 0
-5 -12 0
-5 -13 0
-5 -14 0
-6 -7 0
-6 -8 0
-6 -9 0
-6 -10 0
-6 -11 0
-6 -12 0
-6 -13 0
-6 -14 0
-7 -8 0
-7 -9 0
-7 -10 0
-7 -11 0
-7 -12 0
-7 -13 0
-7 -14 0
-8 -9 0
-8 -10 0
-8 -11 0
-8 -12 0
-8 -13 0
-8 -14 0
-9 -10 0
-9 -11 0
-9 -12 0
-9 -13 0
-9 -14 0
-10 -11 0
-10 -12 0
-10 -13 0
-10 -14 0
-11 -12 0
-11 -13 0
-11 -14 0
-12 -13 0
-12 -14 0
-13 -14 0
2744 2745 2746 2747 2748 2749 2750 2751 2752 2753 2754 2755 2756 2757 2758 2759 2760 0
-2744 -2745 0
-2744 -2746 0
-2744 -2747 0
-2744 -2748 0
-2744 -2749 0
-2744 -2750 0
-2744 -2751 0
-2744 -2752 0
-2744 -2753 0
-2744 -2754 0
-2744 -2755 0
-2744 -2756 0
-2744 -2757 0
-2744 -2758 0
-2744 -2759 0
-2744 -2760 0
-2745 -2746 0
-2745 -2747 0
-2745 -2748 0
-2745 -2749 0
-2745 -2750 0
-2745 -2751 0
-2745 -2752 0
-2745 -2753 0
-2745 -2754 0
-2745 -2755 0
-2745 -2756 0
-2745 -2757 0
-2745 -2758 0
-2745 -2759 0
-2745 -2760 0
-2746 -2747 0
-2746 -2748 0
-2746 -2749 0
-2746 -2750 0
-2746 -2751 0
-2746 -2752 0
-2746 -2753 0
-2746 -2754 0
-2746 -2755 0
-2746 -2756 0
-2746 -2757 0
-2746 -2758 0
-2746 -2759 0
-2746 -2760 0
-2747 -2748 0
-2747 -2749 0
-2747 -2750 0
-2747 -2751 0
-2747 -2752 0
-2747 -2753 0
-2747 -2754 0
-2747 -2755 0
-2747 -2756 0
-2747 -2757 0
-2747 -2758 0
-2747 -2759 0
-2747 -2760 0
-2748 -2749 0
-2748 -2750 0
-2748 -2751 0
-2748 -2752 0
-2748 -2753 0
-2748 -2754 0
-2748 -2755 0
-2748 -2756 0
-2748 -2757 0
-2748 -2758 0
-2748 -2759 0
-2748 -2760 0
-2749 -2750 0
-2749 -2751 0
-2749 -2752 0
-2749 -2753 0
-2749 -2754 0
-2749 -2755 0
-2749 -2756 0
-2749 -2757 0
-2749 -2758 0
-2749 -2759 0
-2749 -2760 0
-2750 -2751 0
-2750 -2752 0
-2750 -2753 0
-2750 -2754 0
-2750 -2755 0
-2750 -2756 0
-2750 -2757 0
-2750 -2758 0
-2750 -2759 0
-2750 -2760 0
-2751 -2752 0
-2751 -2753 0
-2751 -2754 0
-2751 -2755 0
-2751 -2756 0
-2751 -2757 0
-2751 -2758 0
-2751 -2759 0
-2751 -2760 0
-2752 -2753 0
-2752 -2754 0
-2752 -2755 0
-2752 -2756 0
-2752 -2757 0
-2752 -2758 0
-2752 -2759 0
-2752 -2760 0
-2753 -2754 0
-2753 -2755 0
-2753 -2756 0
-2753 -2757 0
-2753 -2758 0
-2753 -2759 0
-2753 -2760 0
-2754 -2755 0
-2754 -2756 0
-2754 -2757 0
-2754 -2758 0
-2754 -2759 0
-2754 -2760 0
-2755 -2756 0
-2755 -2757 0
-2755 -2758 0
-2755 -2759 0
-2755 -2760 0
-2756 -2757 0
-2756 -2758 0
-2756 -2759 0
-2756 -2760 0
-2757 -2758 0
-2757 -2759 0
-2757 -2760 0
-2758 -2759 0
-2758 -2760 0
-2759 -2760 0
